13
-1 54 44 65 99 58 77 63 27 11 81 43 59 
52 -1 -1 95 16 39 60 18 54 96 3 -1 92 
-1 31 -1 -1 2 60 -1 38 45 25 34 51 80 
-1 100 66 -1 -1 32 54 84 23 100 1 68 60 
34 51 29 -1 -1 44 89 -1 68 53 -1 51 67 
48 68 3 36 42 -1 31 81 5 21 41 33 22 
93 75 2 66 5 70 -1 26 29 9 -1 -1 6 
69 91 45 90 -1 73 39 -1 19 29 15 1 -1 
-1 39 -1 71 12 38 86 72 -1 19 -1 33 45 
66 29 60 27 72 50 57 5 87 -1 49 51 70 
28 -1 37 14 -1 75 -1 59 5 52 -1 34 51 
17 42 92 43 98 57 6 81 98 75 56 -1 68 
85 45 53 -1 29 84 63 4 80 68 52 -1 -1 
